n= 20; m= 6;


25	30	54	50	11	32	59	57	24	86	88	52	10	60	25	63	87	75	62	68
39	31	46	18	93	58	85	58	97	10	79	93	2	87	17	18	50	8	26	26
14	21	75	90	85	46	42	18	36	35	44	89	96	73	91	43	57	76	59	82
11	2	36	30	89	10	88	22	31	9	43	91	26	3	75	99	83	70	84	75
23	13	24	46	20	33	34	32	33	71	32	48	42	99	7	54	73	30	75	75
14	21	75	90	85	46	42	18	36	35	44	89	96	73	91	43	57	76	59	82
 
 
 

